p cnf 532 1545
-2 -4 51 0
2 -4 -51 0
-2 4 -51 0
2 4 51 0
-9 -10 52 0
9 -10 -52 0
-9 10 -52 0
9 10 52 0
-11 13 53 0
11 13 -53 0
-11 -13 -53 0
11 -13 53 0
-14 -16 54 0
14 -16 -54 0
-14 16 -54 0
14 16 54 0
17 -18 55 0
-17 -18 -55 0
17 18 -55 0
-17 18 55 0
-19 -23 56 0
19 -23 -56 0
-19 23 -56 0
19 23 56 0
24 -27 57 0
-24 -27 -57 0
24 27 -57 0
-24 27 57 0
-29 -30 58 0
29 -30 -58 0
-29 30 -58 0
29 30 58 0
-31 -32 59 0
31 -32 -59 0
-31 32 -59 0
31 32 59 0
33 -35 60 0
-33 -35 -60 0
33 35 -60 0
-33 35 60 0
-37 38 61 0
37 38 -61 0
-37 -38 -61 0
37 -38 61 0
39 41 62 0
-39 41 -62 0
39 -41 -62 0
-39 -41 62 0
-42 -44 63 0
42 -44 -63 0
-42 44 -63 0
42 44 63 0
-47 50 64 0
47 50 -64 0
-47 -50 -64 0
47 -50 64 0
51 -52 65 0
-51 -52 -65 0
51 52 -65 0
-51 52 65 0
53 -54 66 0
-53 -54 -66 0
53 54 -66 0
-53 54 66 0
55 -56 67 0
-55 -56 -67 0
55 56 -67 0
-55 56 67 0
57 -58 68 0
-57 -58 -68 0
57 58 -68 0
-57 58 68 0
59 -60 69 0
-59 -60 -69 0
59 60 -69 0
-59 60 69 0
61 -62 70 0
-61 -62 -70 0
61 62 -70 0
-61 62 70 0
63 -64 71 0
-63 -64 -71 0
63 64 -71 0
-63 64 71 0
65 -66 72 0
-65 -66 -72 0
65 66 -72 0
-65 66 72 0
67 -68 73 0
-67 -68 -73 0
67 68 -73 0
-67 68 73 0
69 -70 74 0
-69 -70 -74 0
69 70 -74 0
-69 70 74 0
71 -72 75 0
-71 -72 -75 0
71 72 -75 0
-71 72 75 0
73 -74 76 0
-73 -74 -76 0
73 74 -76 0
-73 74 76 0
75 76 0
-75 -76 0
-2 4 77 0
2 4 -77 0
-2 -4 -77 0
2 -4 77 0
5 -6 78 0
-5 -6 -78 0
5 6 -78 0
-5 6 78 0
7 -9 79 0
-7 -9 -79 0
7 9 -79 0
-7 9 79 0
12 -13 80 0
-12 -13 -80 0
12 13 -80 0
-12 13 80 0
-14 22 81 0
14 22 -81 0
-14 -22 -81 0
14 -22 81 0
23 -24 82 0
-23 -24 -82 0
23 24 -82 0
-23 24 82 0
-25 -26 83 0
25 -26 -83 0
-25 26 -83 0
25 26 83 0
27 -28 84 0
-27 -28 -84 0
27 28 -84 0
-27 28 84 0
-29 -30 85 0
29 -30 -85 0
-29 30 -85 0
29 30 85 0
-35 36 86 0
35 36 -86 0
-35 -36 -86 0
35 -36 86 0
-37 -38 87 0
37 -38 -87 0
-37 38 -87 0
37 38 87 0
-39 -49 88 0
39 -49 -88 0
-39 49 -88 0
39 49 88 0
77 -78 89 0
-77 -78 -89 0
77 78 -89 0
-77 78 89 0
79 -80 90 0
-79 -80 -90 0
79 80 -90 0
-79 80 90 0
81 -82 91 0
-81 -82 -91 0
81 82 -91 0
-81 82 91 0
83 -84 92 0
-83 -84 -92 0
83 84 -92 0
-83 84 92 0
85 -86 93 0
-85 -86 -93 0
85 86 -93 0
-85 86 93 0
87 -88 94 0
-87 -88 -94 0
87 88 -94 0
-87 88 94 0
89 -90 95 0
-89 -90 -95 0
89 90 -95 0
-89 90 95 0
91 -92 96 0
-91 -92 -96 0
91 92 -96 0
-91 92 96 0
93 -94 97 0
-93 -94 -97 0
93 94 -97 0
-93 94 97 0
-95 -96 97 0
95 -96 -97 0
-95 96 -97 0
95 96 97 0
-1 -2 98 0
1 -2 -98 0
-1 2 -98 0
1 2 98 0
-4 -6 99 0
4 -6 -99 0
-4 6 -99 0
4 6 99 0
-7 -10 100 0
7 -10 -100 0
-7 10 -100 0
7 10 100 0
-13 -14 101 0
13 -14 -101 0
-13 14 -101 0
13 14 101 0
15 -16 102 0
-15 -16 -102 0
15 16 -102 0
-15 16 102 0
17 18 103 0
-17 18 -103 0
17 -18 -103 0
-17 -18 103 0
22 -23 104 0
-22 -23 -104 0
22 23 -104 0
-22 23 104 0
28 -29 105 0
-28 -29 -105 0
28 29 -105 0
-28 29 105 0
-30 -34 106 0
30 -34 -106 0
-30 34 -106 0
30 34 106 0
35 -37 107 0
-35 -37 -107 0
35 37 -107 0
-35 37 107 0
-42 -43 108 0
42 -43 -108 0
-42 43 -108 0
42 43 108 0
-44 -45 109 0
44 -45 -109 0
-44 45 -109 0
44 45 109 0
97 -98 110 0
-97 -98 -110 0
97 98 -110 0
-97 98 110 0
99 -100 111 0
-99 -100 -111 0
99 100 -111 0
-99 100 111 0
101 -102 112 0
-101 -102 -112 0
101 102 -112 0
-101 102 112 0
103 -104 113 0
-103 -104 -113 0
103 104 -113 0
-103 104 113 0
105 -106 114 0
-105 -106 -114 0
105 106 -114 0
-105 106 114 0
107 -108 115 0
-107 -108 -115 0
107 108 -115 0
-107 108 115 0
109 -110 116 0
-109 -110 -116 0
109 110 -116 0
-109 110 116 0
111 -112 117 0
-111 -112 -117 0
111 112 -117 0
-111 112 117 0
113 -114 118 0
-113 -114 -118 0
113 114 -118 0
-113 114 118 0
115 -116 119 0
-115 -116 -119 0
115 116 -119 0
-115 116 119 0
117 -118 120 0
-117 -118 -120 0
117 118 -120 0
-117 118 120 0
119 120 0
-119 -120 0
2 3 121 0
-2 3 -121 0
2 -3 -121 0
-2 -3 121 0
-4 6 122 0
4 6 -122 0
-4 -6 -122 0
4 -6 122 0
-8 -10 123 0
8 -10 -123 0
-8 10 -123 0
8 10 123 0
-12 -14 124 0
12 -14 -124 0
-12 14 -124 0
12 14 124 0
21 -23 125 0
-21 -23 -125 0
21 23 -125 0
-21 23 125 0
-24 25 126 0
24 25 -126 0
-24 -25 -126 0
24 -25 126 0
-26 27 127 0
26 27 -127 0
-26 -27 -127 0
26 -27 127 0
30 32 128 0
-30 32 -128 0
30 -32 -128 0
-30 -32 128 0
34 -37 129 0
-34 -37 -129 0
34 37 -129 0
-34 37 129 0
-38 39 130 0
38 39 -130 0
-38 -39 -130 0
38 -39 130 0
41 -42 131 0
-41 -42 -131 0
41 42 -131 0
-41 42 131 0
-44 45 132 0
44 45 -132 0
-44 -45 -132 0
44 -45 132 0
120 -121 133 0
-120 -121 -133 0
120 121 -133 0
-120 121 133 0
122 -123 134 0
-122 -123 -134 0
122 123 -134 0
-122 123 134 0
124 -125 135 0
-124 -125 -135 0
124 125 -135 0
-124 125 135 0
126 -127 136 0
-126 -127 -136 0
126 127 -136 0
-126 127 136 0
128 -129 137 0
-128 -129 -137 0
128 129 -137 0
-128 129 137 0
130 -131 138 0
-130 -131 -138 0
130 131 -138 0
-130 131 138 0
132 -133 139 0
-132 -133 -139 0
132 133 -139 0
-132 133 139 0
134 -135 140 0
-134 -135 -140 0
134 135 -140 0
-134 135 140 0
136 -137 141 0
-136 -137 -141 0
136 137 -141 0
-136 137 141 0
138 -139 142 0
-138 -139 -142 0
138 139 -142 0
-138 139 142 0
140 -141 143 0
-140 -141 -143 0
140 141 -143 0
-140 141 143 0
142 143 0
-142 -143 0
-1 -5 144 0
1 -5 -144 0
-1 5 -144 0
1 5 144 0
9 -13 145 0
-9 -13 -145 0
9 13 -145 0
-9 13 145 0
14 -15 146 0
-14 -15 -146 0
14 15 -146 0
-14 15 146 0
-17 18 147 0
17 18 -147 0
-17 -18 -147 0
17 -18 147 0
21 -25 148 0
-21 -25 -148 0
21 25 -148 0
-21 25 148 0
-27 -30 149 0
27 -30 -149 0
-27 30 -149 0
27 30 149 0
-31 33 150 0
31 33 -150 0
-31 -33 -150 0
31 -33 150 0
35 -36 151 0
-35 -36 -151 0
35 36 -151 0
-35 36 151 0
-39 -42 152 0
39 -42 -152 0
-39 42 -152 0
39 42 152 0
44 47 153 0
-44 47 -153 0
44 -47 -153 0
-44 -47 153 0
-49 -50 154 0
49 -50 -154 0
-49 50 -154 0
49 50 154 0
144 -145 155 0
-144 -145 -155 0
144 145 -155 0
-144 145 155 0
146 -147 156 0
-146 -147 -156 0
146 147 -156 0
-146 147 156 0
148 -149 157 0
-148 -149 -157 0
148 149 -157 0
-148 149 157 0
150 -151 158 0
-150 -151 -158 0
150 151 -158 0
-150 151 158 0
152 -153 159 0
-152 -153 -159 0
152 153 -159 0
-152 153 159 0
154 -155 160 0
-154 -155 -160 0
154 155 -160 0
-154 155 160 0
156 -157 161 0
-156 -157 -161 0
156 157 -161 0
-156 157 161 0
158 -159 162 0
-158 -159 -162 0
158 159 -162 0
-158 159 162 0
-160 -161 162 0
160 -161 -162 0
-160 161 -162 0
160 161 162 0
-1 -3 163 0
1 -3 -163 0
-1 3 -163 0
1 3 163 0
6 -7 164 0
-6 -7 -164 0
6 7 -164 0
-6 7 164 0
9 -10 165 0
-9 -10 -165 0
9 10 -165 0
-9 10 165 0
-11 -19 166 0
11 -19 -166 0
-11 19 -166 0
11 19 166 0
21 -22 167 0
-21 -22 -167 0
21 22 -167 0
-21 22 167 0
-23 28 168 0
23 28 -168 0
-23 -28 -168 0
23 -28 168 0
-29 -32 169 0
29 -32 -169 0
-29 32 -169 0
29 32 169 0
33 35 170 0
-33 35 -170 0
33 -35 -170 0
-33 -35 170 0
-36 -38 171 0
36 -38 -171 0
-36 38 -171 0
36 38 171 0
39 41 172 0
-39 41 -172 0
39 -41 -172 0
-39 -41 172 0
42 -43 173 0
-42 -43 -173 0
42 43 -173 0
-42 43 173 0
-47 -49 174 0
47 -49 -174 0
-47 49 -174 0
47 49 174 0
162 -163 175 0
-162 -163 -175 0
162 163 -175 0
-162 163 175 0
164 -165 176 0
-164 -165 -176 0
164 165 -176 0
-164 165 176 0
166 -167 177 0
-166 -167 -177 0
166 167 -177 0
-166 167 177 0
168 -169 178 0
-168 -169 -178 0
168 169 -178 0
-168 169 178 0
170 -171 179 0
-170 -171 -179 0
170 171 -179 0
-170 171 179 0
172 -173 180 0
-172 -173 -180 0
172 173 -180 0
-172 173 180 0
174 -175 181 0
-174 -175 -181 0
174 175 -181 0
-174 175 181 0
176 -177 182 0
-176 -177 -182 0
176 177 -182 0
-176 177 182 0
178 -179 183 0
-178 -179 -183 0
178 179 -183 0
-178 179 183 0
180 -181 184 0
-180 -181 -184 0
180 181 -184 0
-180 181 184 0
182 -183 185 0
-182 -183 -185 0
182 183 -185 0
-182 183 185 0
184 185 0
-184 -185 0
1 -3 186 0
-1 -3 -186 0
1 3 -186 0
-1 3 186 0
5 12 187 0
-5 12 -187 0
5 -12 -187 0
-5 -12 187 0
-14 18 188 0
14 18 -188 0
-14 -18 -188 0
14 -18 188 0
-22 26 189 0
22 26 -189 0
-22 -26 -189 0
22 -26 189 0
30 31 190 0
-30 31 -190 0
30 -31 -190 0
-30 -31 190 0
33 -34 191 0
-33 -34 -191 0
33 34 -191 0
-33 34 191 0
-38 39 192 0
38 39 -192 0
-38 -39 -192 0
38 -39 192 0
-40 42 193 0
40 42 -193 0
-40 -42 -193 0
40 -42 193 0
45 -48 194 0
-45 -48 -194 0
45 48 -194 0
-45 48 194 0
-49 50 195 0
49 50 -195 0
-49 -50 -195 0
49 -50 195 0
186 -187 196 0
-186 -187 -196 0
186 187 -196 0
-186 187 196 0
188 -189 197 0
-188 -189 -197 0
188 189 -197 0
-188 189 197 0
190 -191 198 0
-190 -191 -198 0
190 191 -198 0
-190 191 198 0
192 -193 199 0
-192 -193 -199 0
192 193 -199 0
-192 193 199 0
194 -195 200 0
-194 -195 -200 0
194 195 -200 0
-194 195 200 0
196 -197 201 0
-196 -197 -201 0
196 197 -201 0
-196 197 201 0
198 -199 202 0
-198 -199 -202 0
198 199 -202 0
-198 199 202 0
-200 -201 202 0
200 -201 -202 0
-200 201 -202 0
200 201 202 0
1 4 203 0
-1 4 -203 0
1 -4 -203 0
-1 -4 203 0
-5 7 204 0
5 7 -204 0
-5 -7 -204 0
5 -7 204 0
-8 9 205 0
8 9 -205 0
-8 -9 -205 0
8 -9 205 0
10 11 206 0
-10 11 -206 0
10 -11 -206 0
-10 -11 206 0
-12 -13 207 0
12 -13 -207 0
-12 13 -207 0
12 13 207 0
-15 -16 208 0
15 -16 -208 0
-15 16 -208 0
15 16 208 0
17 -20 209 0
-17 -20 -209 0
17 20 -209 0
-17 20 209 0
21 -22 210 0
-21 -22 -210 0
21 22 -210 0
-21 22 210 0
24 -26 211 0
-24 -26 -211 0
24 26 -211 0
-24 26 211 0
27 28 212 0
-27 28 -212 0
27 -28 -212 0
-27 -28 212 0
-30 -31 213 0
30 -31 -213 0
-30 31 -213 0
30 31 213 0
-33 35 214 0
33 35 -214 0
-33 -35 -214 0
33 -35 214 0
-36 40 215 0
36 40 -215 0
-36 -40 -215 0
36 -40 215 0
42 -44 216 0
-42 -44 -216 0
42 44 -216 0
-42 44 216 0
-47 -48 217 0
47 -48 -217 0
-47 48 -217 0
47 48 217 0
49 -50 218 0
-49 -50 -218 0
49 50 -218 0
-49 50 218 0
203 -204 219 0
-203 -204 -219 0
203 204 -219 0
-203 204 219 0
205 -206 220 0
-205 -206 -220 0
205 206 -220 0
-205 206 220 0
207 -208 221 0
-207 -208 -221 0
207 208 -221 0
-207 208 221 0
209 -210 222 0
-209 -210 -222 0
209 210 -222 0
-209 210 222 0
211 -212 223 0
-211 -212 -223 0
211 212 -223 0
-211 212 223 0
213 -214 224 0
-213 -214 -224 0
213 214 -224 0
-213 214 224 0
215 -216 225 0
-215 -216 -225 0
215 216 -225 0
-215 216 225 0
217 -218 226 0
-217 -218 -226 0
217 218 -226 0
-217 218 226 0
219 -220 227 0
-219 -220 -227 0
219 220 -227 0
-219 220 227 0
221 -222 228 0
-221 -222 -228 0
221 222 -228 0
-221 222 228 0
223 -224 229 0
-223 -224 -229 0
223 224 -229 0
-223 224 229 0
225 -226 230 0
-225 -226 -230 0
225 226 -230 0
-225 226 230 0
227 -228 231 0
-227 -228 -231 0
227 228 -231 0
-227 228 231 0
229 -230 232 0
-229 -230 -232 0
229 230 -232 0
-229 230 232 0
231 232 0
-231 -232 0
1 3 233 0
-1 3 -233 0
1 -3 -233 0
-1 -3 233 0
-5 8 234 0
5 8 -234 0
-5 -8 -234 0
5 -8 234 0
10 11 235 0
-10 11 -235 0
10 -11 -235 0
-10 -11 235 0
12 17 236 0
-12 17 -236 0
12 -17 -236 0
-12 -17 236 0
-20 21 237 0
20 21 -237 0
-20 -21 -237 0
20 -21 237 0
22 25 238 0
-22 25 -238 0
22 -25 -238 0
-22 -25 238 0
-28 -29 239 0
28 -29 -239 0
-28 29 -239 0
28 29 239 0
31 32 240 0
-31 32 -240 0
31 -32 -240 0
-31 -32 240 0
36 37 241 0
-36 37 -241 0
36 -37 -241 0
-36 -37 241 0
-41 -43 242 0
41 -43 -242 0
-41 43 -242 0
41 43 242 0
-44 -50 243 0
44 -50 -243 0
-44 50 -243 0
44 50 243 0
233 -234 244 0
-233 -234 -244 0
233 234 -244 0
-233 234 244 0
235 -236 245 0
-235 -236 -245 0
235 236 -245 0
-235 236 245 0
237 -238 246 0
-237 -238 -246 0
237 238 -246 0
-237 238 246 0
239 -240 247 0
-239 -240 -247 0
239 240 -247 0
-239 240 247 0
241 -242 248 0
-241 -242 -248 0
241 242 -248 0
-241 242 248 0
243 -244 249 0
-243 -244 -249 0
243 244 -249 0
-243 244 249 0
245 -246 250 0
-245 -246 -250 0
245 246 -250 0
-245 246 250 0
247 -248 251 0
-247 -248 -251 0
247 248 -251 0
-247 248 251 0
-249 -250 251 0
249 -250 -251 0
-249 250 -251 0
249 250 251 0
1 4 252 0
-1 4 -252 0
1 -4 -252 0
-1 -4 252 0
-5 -6 253 0
5 -6 -253 0
-5 6 -253 0
5 6 253 0
-7 -8 254 0
7 -8 -254 0
-7 8 -254 0
7 8 254 0
-9 10 255 0
9 10 -255 0
-9 -10 -255 0
9 -10 255 0
11 13 256 0
-11 13 -256 0
11 -13 -256 0
-11 -13 256 0
15 18 257 0
-15 18 -257 0
15 -18 -257 0
-15 -18 257 0
20 -21 258 0
-20 -21 -258 0
20 21 -258 0
-20 21 258 0
-22 -23 259 0
22 -23 -259 0
-22 23 -259 0
22 23 259 0
-25 26 260 0
25 26 -260 0
-25 -26 -260 0
25 -26 260 0
-28 29 261 0
28 29 -261 0
-28 -29 -261 0
28 -29 261 0
-33 35 262 0
33 35 -262 0
-33 -35 -262 0
33 -35 262 0
36 -47 263 0
-36 -47 -263 0
36 47 -263 0
-36 47 263 0
251 -252 264 0
-251 -252 -264 0
251 252 -264 0
-251 252 264 0
253 -254 265 0
-253 -254 -265 0
253 254 -265 0
-253 254 265 0
255 -256 266 0
-255 -256 -266 0
255 256 -266 0
-255 256 266 0
257 -258 267 0
-257 -258 -267 0
257 258 -267 0
-257 258 267 0
259 -260 268 0
-259 -260 -268 0
259 260 -268 0
-259 260 268 0
261 -262 269 0
-261 -262 -269 0
261 262 -269 0
-261 262 269 0
263 -264 270 0
-263 -264 -270 0
263 264 -270 0
-263 264 270 0
265 -266 271 0
-265 -266 -271 0
265 266 -271 0
-265 266 271 0
267 -268 272 0
-267 -268 -272 0
267 268 -272 0
-267 268 272 0
269 -270 273 0
-269 -270 -273 0
269 270 -273 0
-269 270 273 0
271 -272 274 0
-271 -272 -274 0
271 272 -274 0
-271 272 274 0
273 274 0
-273 -274 0
-12 275 0
-24 275 0
-12 -24 276 0
-23 275 0
-12 -23 276 0
-24 -23 276 0
-12 -24 -23 277 0
-22 278 0
-21 278 0
-22 -21 279 0
-20 278 0
-22 -20 279 0
-21 -20 279 0
-22 -21 -20 280 0
-275 281 0
-276 282 0
-277 283 0
-278 281 0
-279 282 0
-280 283 0
-275 -278 282 0
-275 -279 283 0
-275 -280 284 0
-276 -278 283 0
-276 -279 284 0
-276 -280 285 0
-277 -278 284 0
-277 -279 285 0
-277 -280 286 0
-19 287 0
-18 287 0
-19 -18 288 0
-17 287 0
-19 -17 288 0
-18 -17 288 0
-19 -18 -17 289 0
-16 290 0
-15 290 0
-16 -15 291 0
-14 290 0
-16 -14 291 0
-15 -14 291 0
-16 -15 -14 292 0
-287 293 0
-288 294 0
-289 295 0
-290 293 0
-291 294 0
-292 295 0
-287 -290 294 0
-287 -291 295 0
-287 -292 296 0
-288 -290 295 0
-288 -291 296 0
-288 -292 297 0
-289 -290 296 0
-289 -291 297 0
-289 -292 298 0
-13 299 0
-25 299 0
-13 -25 300 0
-11 299 0
-13 -11 300 0
-25 -11 300 0
-13 -25 -11 301 0
-10 302 0
-9 302 0
-10 -9 303 0
-8 302 0
-10 -8 303 0
-9 -8 303 0
-10 -9 -8 304 0
-299 305 0
-300 306 0
-301 307 0
-302 305 0
-303 306 0
-304 307 0
-299 -302 306 0
-299 -303 307 0
-299 -304 308 0
-300 -302 307 0
-300 -303 308 0
-300 -304 309 0
-301 -302 308 0
-301 -303 309 0
-301 -304 310 0
-7 311 0
-6 311 0
-7 -6 312 0
-5 311 0
-7 -5 312 0
-6 -5 312 0
-7 -6 -5 313 0
-4 314 0
-3 314 0
-4 -3 315 0
-2 316 0
-1 316 0
-2 -1 317 0
-37 316 0
-2 -37 317 0
-1 -37 317 0
-2 -1 -37 318 0
-314 319 0
-315 320 0
-316 319 0
-317 320 0
-318 321 0
-314 -316 320 0
-314 -317 321 0
-314 -318 322 0
-315 -316 321 0
-315 -317 322 0
-315 -318 323 0
-311 324 0
-312 325 0
-313 326 0
-319 324 0
-320 325 0
-321 326 0
-322 327 0
-323 328 0
-311 -319 325 0
-311 -320 326 0
-311 -321 327 0
-311 -322 328 0
-311 -323 329 0
-312 -319 326 0
-312 -320 327 0
-312 -321 328 0
-312 -322 329 0
-312 -323 330 0
-313 -319 327 0
-313 -320 328 0
-313 -321 329 0
-313 -322 330 0
-313 -323 331 0
-49 332 0
-48 332 0
-49 -48 333 0
-47 332 0
-49 -47 333 0
-48 -47 333 0
-49 -48 -47 334 0
-46 335 0
-45 335 0
-46 -45 336 0
-44 337 0
-43 337 0
-44 -43 338 0
-42 337 0
-44 -42 338 0
-43 -42 338 0
-44 -43 -42 339 0
-335 340 0
-336 341 0
-337 340 0
-338 341 0
-339 342 0
-335 -337 341 0
-335 -338 342 0
-335 -339 343 0
-336 -337 342 0
-336 -338 343 0
-336 -339 344 0
-332 345 0
-333 346 0
-334 347 0
-340 345 0
-341 346 0
-342 347 0
-343 348 0
-344 349 0
-332 -340 346 0
-332 -341 347 0
-332 -342 348 0
-332 -343 349 0
-332 -344 350 0
-333 -340 347 0
-333 -341 348 0
-333 -342 349 0
-333 -343 350 0
-333 -344 351 0
-334 -340 348 0
-334 -341 349 0
-334 -342 350 0
-334 -343 351 0
-334 -344 352 0
-41 353 0
-40 353 0
-41 -40 354 0
-39 353 0
-41 -39 354 0
-40 -39 354 0
-41 -40 -39 355 0
-38 356 0
-50 356 0
-38 -50 357 0
-36 358 0
-35 358 0
-36 -35 359 0
-34 358 0
-36 -34 359 0
-35 -34 359 0
-36 -35 -34 360 0
-356 361 0
-357 362 0
-358 361 0
-359 362 0
-360 363 0
-356 -358 362 0
-356 -359 363 0
-356 -360 364 0
-357 -358 363 0
-357 -359 364 0
-357 -360 365 0
-353 366 0
-354 367 0
-355 368 0
-361 366 0
-362 367 0
-363 368 0
-364 369 0
-365 370 0
-353 -361 367 0
-353 -362 368 0
-353 -363 369 0
-353 -364 370 0
-353 -365 371 0
-354 -361 368 0
-354 -362 369 0
-354 -363 370 0
-354 -364 371 0
-354 -365 372 0
-355 -361 369 0
-355 -362 370 0
-355 -363 371 0
-355 -364 372 0
-355 -365 373 0
-33 374 0
-32 374 0
-33 -32 375 0
-31 374 0
-33 -31 375 0
-32 -31 375 0
-33 -32 -31 376 0
-30 377 0
-29 377 0
-30 -29 378 0
-28 379 0
-27 379 0
-28 -27 380 0
-26 379 0
-28 -26 380 0
-27 -26 380 0
-28 -27 -26 381 0
-377 382 0
-378 383 0
-379 382 0
-380 383 0
-381 384 0
-377 -379 383 0
-377 -380 384 0
-377 -381 385 0
-378 -379 384 0
-378 -380 385 0
-378 -381 386 0
-374 387 0
-375 388 0
-376 389 0
-382 387 0
-383 388 0
-384 389 0
-385 390 0
-386 391 0
-374 -382 388 0
-374 -383 389 0
-374 -384 390 0
-374 -385 391 0
-374 -386 392 0
-375 -382 389 0
-375 -383 390 0
-375 -384 391 0
-375 -385 392 0
-375 -386 393 0
-376 -382 390 0
-376 -383 391 0
-376 -384 392 0
-376 -385 393 0
-376 -386 394 0
-366 395 0
-368 396 0
-370 397 0
-372 398 0
-387 395 0
-389 396 0
-391 397 0
-393 398 0
-366 -387 396 0
-366 -389 397 0
-366 -391 398 0
-366 -393 399 0
-368 -387 397 0
-368 -389 398 0
-368 -391 399 0
-368 -393 400 0
-370 -387 398 0
-370 -389 399 0
-370 -391 400 0
-372 -387 399 0
-372 -389 400 0
-367 401 0
-371 402 0
-388 401 0
-392 402 0
-367 -388 402 0
-367 -392 403 0
-371 -388 403 0
-369 404 0
-373 405 0
-390 404 0
-394 405 0
-369 -390 405 0
-402 406 0
-404 406 0
-402 -404 407 0
-403 408 0
-405 408 0
-403 -405 409 0
-396 410 0
-401 410 0
-396 -401 411 0
-397 412 0
-406 412 0
-397 -406 413 0
-398 414 0
-407 414 0
-398 -407 415 0
-399 416 0
-408 416 0
-399 -408 417 0
-400 418 0
-409 418 0
-400 -409 419 0
-345 420 0
-347 421 0
-349 422 0
-351 423 0
-395 420 0
-411 421 0
-413 422 0
-415 423 0
-417 424 0
-419 425 0
-345 -395 421 0
-345 -411 422 0
-345 -413 423 0
-345 -415 424 0
-345 -417 425 0
-347 -395 422 0
-347 -411 423 0
-347 -413 424 0
-347 -415 425 0
-349 -395 423 0
-349 -411 424 0
-349 -413 425 0
-351 -395 424 0
-351 -411 425 0
-346 426 0
-350 427 0
-410 426 0
-414 427 0
-418 428 0
-346 -410 427 0
-346 -414 428 0
-350 -410 428 0
-348 429 0
-352 430 0
-412 429 0
-416 430 0
-348 -412 430 0
-427 431 0
-429 431 0
-427 -429 432 0
-428 433 0
-430 433 0
-428 -430 434 0
-421 435 0
-426 435 0
-421 -426 436 0
-422 437 0
-431 437 0
-422 -431 438 0
-423 439 0
-432 439 0
-423 -432 440 0
-424 441 0
-433 441 0
-424 -433 442 0
-425 443 0
-434 443 0
-425 -434 444 0
-324 445 0
-326 446 0
-328 447 0
-330 448 0
-420 445 0
-436 446 0
-438 447 0
-440 448 0
-442 449 0
-444 450 0
-324 -420 446 0
-324 -436 447 0
-324 -438 448 0
-324 -440 449 0
-324 -442 450 0
-326 -420 447 0
-326 -436 448 0
-326 -438 449 0
-326 -440 450 0
-328 -420 448 0
-328 -436 449 0
-328 -438 450 0
-330 -420 449 0
-330 -436 450 0
-325 451 0
-329 452 0
-435 451 0
-439 452 0
-443 453 0
-325 -435 452 0
-325 -439 453 0
-329 -435 453 0
-327 454 0
-331 455 0
-437 454 0
-441 455 0
-327 -437 455 0
-452 456 0
-454 456 0
-452 -454 457 0
-453 458 0
-455 458 0
-453 -455 459 0
-446 460 0
-451 460 0
-446 -451 461 0
-447 462 0
-456 462 0
-447 -456 463 0
-448 464 0
-457 464 0
-448 -457 465 0
-449 466 0
-458 466 0
-449 -458 467 0
-450 468 0
-459 468 0
-450 -459 469 0
-305 470 0
-307 471 0
-309 472 0
-445 470 0
-461 471 0
-463 472 0
-465 473 0
-467 474 0
-469 475 0
-305 -445 471 0
-305 -461 472 0
-305 -463 473 0
-305 -465 474 0
-305 -467 475 0
-307 -445 472 0
-307 -461 473 0
-307 -463 474 0
-307 -465 475 0
-309 -445 473 0
-309 -461 474 0
-309 -463 475 0
-306 476 0
-308 477 0
-310 478 0
-460 476 0
-462 477 0
-464 478 0
-466 479 0
-468 480 0
-306 -460 477 0
-306 -462 478 0
-306 -464 479 0
-306 -466 480 0
-308 -460 478 0
-308 -462 479 0
-308 -464 480 0
-310 -460 479 0
-310 -462 480 0
-471 481 0
-476 481 0
-471 -476 482 0
-472 483 0
-477 483 0
-472 -477 484 0
-473 485 0
-478 485 0
-473 -478 486 0
-474 487 0
-479 487 0
-474 -479 488 0
-475 489 0
-480 489 0
-475 -480 490 0
-293 491 0
-295 492 0
-297 493 0
-470 491 0
-482 492 0
-484 493 0
-486 494 0
-488 495 0
-490 496 0
-293 -470 492 0
-293 -482 493 0
-293 -484 494 0
-293 -486 495 0
-293 -488 496 0
-295 -470 493 0
-295 -482 494 0
-295 -484 495 0
-295 -486 496 0
-297 -470 494 0
-297 -482 495 0
-297 -484 496 0
-294 497 0
-296 498 0
-298 499 0
-481 497 0
-483 498 0
-485 499 0
-487 500 0
-489 501 0
-294 -481 498 0
-294 -483 499 0
-294 -485 500 0
-294 -487 501 0
-296 -481 499 0
-296 -483 500 0
-296 -485 501 0
-298 -481 500 0
-298 -483 501 0
-492 502 0
-497 502 0
-492 -497 503 0
-493 504 0
-498 504 0
-493 -498 505 0
-494 506 0
-499 506 0
-494 -499 507 0
-495 508 0
-500 508 0
-495 -500 509 0
-496 510 0
-501 510 0
-496 -501 511 0
-281 512 0
-283 513 0
-285 514 0
-491 512 0
-503 513 0
-505 514 0
-507 515 0
-509 516 0
-511 517 0
-281 -491 513 0
-281 -503 514 0
-281 -505 515 0
-281 -507 516 0
-281 -509 517 0
-283 -491 514 0
-283 -503 515 0
-283 -505 516 0
-283 -507 517 0
-285 -491 515 0
-285 -503 516 0
-285 -505 517 0
-282 518 0
-284 519 0
-286 520 0
-502 518 0
-504 519 0
-506 520 0
-508 521 0
-510 522 0
-282 -502 519 0
-282 -504 520 0
-282 -506 521 0
-282 -508 522 0
-284 -502 520 0
-284 -504 521 0
-284 -506 522 0
-286 -502 521 0
-286 -504 522 0
-513 523 0
-518 523 0
-513 -518 524 0
-514 525 0
-519 525 0
-514 -519 526 0
-515 527 0
-520 527 0
-515 -520 528 0
-516 529 0
-521 529 0
-516 -521 530 0
-517 531 0
-522 531 0
-517 -522 532 0
-532 0
